GaAs                                    
   5.50800000000000     
    -0.0000000000000000    0.5231730839515107    0.5231730839515107
     0.5231730839515107   -0.0000000000000000    0.5231730839515107
     0.5231730839515107    0.5231730839515107    0.0000000000000000
   Ga   As
     1     1
Direct
 -0.0000000000000000 -0.0000000000000000 -0.0000000000000000
  0.2500000000000000  0.2500000000000000  0.2500000000000000
 
  0.00000000E+00  0.00000000E+00  0.00000000E+00
  0.00000000E+00  0.00000000E+00  0.00000000E+00
